language ESSENCE' 1.0

letting fixed be 
[
    [9,2,6,0,0,0,1,0,0],
    [5,3,7,0,1,0,4,2,0],
    [8,4,1,0,0,0,6,0,3],
    [2,5,9,7,3,4,8,1,6],
    [7,1,4,0,6,0,0,3,0],
    [3,6,8,1,2,0,0,4,0],
    [1,0,2,0,0,0,0,8,4],
    [4,8,5,0,7,1,3,6,0],
    [6,0,3,0,0,0,0,0,1]
]